\ENCODING=ISO-8859-1
\Problem name: smkp_2_SCEN2

Minimize
 obj: 64 y0 + 31 y1 + 40 y2 + 58 y3
Subject To
 ub_0:   y0 + sk6  = 1
 ub_1:   y1 + sk7  = 1
 ub_2:   y2 + sk8  = 1
 ub_3:   y3 + sk9  = 1
 c3:     87 y0 + 83 y1 + 66 y2 + 24 y3 + 88 x0 - sk10  = 22
 c4:     52 y0 + 94 y1 + 54 y2 + 84 y3 + 40 x0 - sk11  = 14
 c5:     62 y0 + 91 y1 + 38 y2 + 100 y3 + 32 x1 - sk12  = 25
 c6:     88 y0 + 25 y1 + 24 y2 + 12 y3 + 14 x1 - sk13  = 6
 bd_8:   x0  = 0
 bd_9:   x1  = 1
 gc_10:  y1 + y3 - sk12 + sk14  = 0
 gc_11:  y1 + y3 - sk14 + sk15  = 0
 gc_12:  y1 + y3 - sk15 + sk16  = 0
 gc_13:  y1 + y3 - sk16 + sk17  = 0
 gc_14:  y1 + y3 - sk17 + sk18  = 0
 gc_15:  y1 + y3 - sk18 + sk19  = 0
 gc_16:  y1 + y3 - sk19 + sk20  = 0
 gc_17:  y1 + y3 - sk20 + sk21  = 0
 gc_18:  y1 + y3 - sk21 + sk22  = 0
 gc_19:  y1 + y3 - sk22 + sk23  = 0
 gc_20:  y1 + y3 - sk23 + sk24  = 0
 gc_21:  y1 + y3 - sk24 + sk25  = 0
 gc_22:  y1 + y3 - sk25 + sk26  = 0
 gc_23:  y1 + y3 - sk26 + sk27  = 0
 gc_24:  y1 + y3 - sk27 + sk28  = 0
 gc_25:  y1 + y3 - sk28 + sk29  = 0
 gc_26:  y1 + y3 - sk29 + sk30  = 0
 gc_27:  y1 + y3 - sk30 + sk31  = 0
 gc_28:  y1 + y3 - sk31 + sk32  = 0
 gc_29:  y1 + y3 - sk32 + sk33  = 0
 gc_30:  y1 + y3 - sk33 + sk34  = 0
 gc_31:  y1 + y3 - sk34 + sk35  = 0
 gc_32:  y1 + y3 - sk35 + sk36  = 0
 gc_33:  y1 + y3 - sk36 + sk37  = 0
 gc_34:  y1 + y3 - sk37 + sk38  = 0
 gc_35:  y1 + y3 - sk38 + sk39  = 0
 gc_36:  y1 + y3 - sk39 + sk40  = 0
 gc_37:  y1 + y3 - sk40 + sk41  = 0
 gc_38:  y1 + y3 - sk41 + sk42  = 0
 gc_39:  y0 + y1 + y3 - sk42 + sk43  = 0
 gc_40:  y1 + y3 - sk43 + sk44  = 0
 gc_41:  y0 + y1 + y3 - sk44 + sk45  = 0
 gc_42:  y0 + y1 + y3 - sk45 + sk46  = 0
 gc_43:  y0 + y1 + y3 - sk46 + sk47  = 0
 gc_44:  y0 + y1 + y3 - sk47 + sk48  = 0
 gc_45:  y0 + y1 + y3 - sk48 + sk49  = 0
 gc_46:  y0 + y1 + y3 - sk49 + sk50  = 0
 gc_47:  y0 + y1 + y3 - sk50 + sk51  = 0
 gc_48:  y0 + y1 + y3 - sk51 + sk52  = 0
 gc_49:  y0 + y1 + y3 - sk52 + sk53  = 0
 gc_50:  y0 + y1 + y3 - sk53 + sk54  = 0
 gc_51:  y0 + y1 + y3 - sk54 + sk55  = 0
 gc_52:  y0 + y1 + y3 - sk55 + sk56  = 0
 gc_53:  y0 + y1 + y3 - sk56 + sk57  = 0
 gc_54:  y0 + y1 + y3 - sk57 + sk58  = 0
 gc_55:  y0 + y1 + y3 - sk58 + sk59  = 0
 gc_56:  y0 + y1 + y3 - sk59 + sk60  = 0
 gc_57:  y0 + y1 + y3 - sk60 + sk61  = 0
 gc_58:  y0 + y1 + y3 - sk61 + sk62  = 0
 gc_59:  y0 + y1 + y3 - sk62 + sk63  = 0
 gc_60:  y0 + y1 + y3 - sk63 + sk64  = 0
 gc_61:  y0 + y1 + y3 - sk64 + sk65  = 0
 gc_62:  y0 + y1 + y3 - sk65 + sk66  = 0
 gc_63:  y0 + y1 + y2 + y3 - sk66 + sk67  = 0
 gc_64:  y0 + y1 + y3 - sk67 + sk68  = 0
 gc_65:  y0 + y1 + y2 + y3 - sk68 + sk69  = 0
 gc_66:  y0 + y1 + y2 + y3 - sk69 + sk70  = 0
 gc_67:  y0 + y1 + y2 + y3 - sk70 + sk71  = 0
 gc_68:  y0 + y1 + y2 + y3 - sk71 + sk72  = 0
 gc_69:  y0 + y1 + y2 + y3 - sk72 + sk73  = 0
 gc_70:  y0 + y1 + y2 + y3 - sk73 + sk74  = 0
 gc_71:  y0 + y1 + y2 + y3 - sk74 + sk75  = 0
 gc_72:  y0 + y1 + y2 + y3 - sk75 + sk76  = 0
 gc_73:  y0 + y1 + y2 + y3 - sk76 + sk77  = 0
 gc_74:  y0 + y1 + y2 + y3 - sk77 + sk78  = 0
 gc_75:  y0 + y1 + y2 + y3 - sk78 + sk79  = 0
 gc_76:  y0 + y1 - sk10 + sk80  = 0
 gc_77:  y0 + y1 - sk80 + sk81  = 0
 gc_78:  y0 + y1 - sk81 + sk82  = 0
 gc_79:  y0 + y1 - sk82 + sk83  = 0
 gc_80:  y0 + y1 - sk83 + sk84  = 0
 gc_81:  y0 + y1 - sk84 + sk85  = 0
 gc_82:  y0 + y1 - sk85 + sk86  = 0
 gc_83:  y0 + y1 - sk86 + sk87  = 0
 gc_84:  y0 + y1 - sk87 + sk88  = 0
 gc_85:  y0 + y1 - sk88 + sk89  = 0
 gc_86:  y0 + y1 - sk89 + sk90  = 0
 gc_87:  y0 + y1 - sk90 + sk91  = 0
 gc_88:  y0 + y1 - sk91 + sk92  = 0
 gc_89:  y0 + y1 - sk92 + sk93  = 0
 gc_90:  y0 + y1 - sk93 + sk94  = 0
 gc_91:  y0 + y1 - sk94 + sk95  = 0
 gc_92:  y0 + y1 - sk95 + sk96  = 0
 gc_93:  y0 + y1 + y2 - sk96 + sk97  = 0
 gc_94:  y0 + y1 - sk97 + sk98  = 0
 gc_95:  y0 + y1 + y2 - sk98 + sk99  = 0
 gc_96:  y0 + y1 + y2 - sk99 + sk100  = 0
 gc_97:  y0 + y1 + y2 - sk100 + sk101  = 0
 gc_98:  y0 + y1 + y2 - sk101 + sk102  = 0
 gc_99:  y0 + y1 + y2 - sk102 + sk103  = 0
 gc_100: y0 + y1 + y2 - sk103 + sk104  = 0
 gc_101: y0 + y1 + y2 - sk104 + sk105  = 0
 gc_102: y0 + y1 + y2 - sk105 + sk106  = 0
 gc_103: y0 + y1 + y2 - sk106 + sk107  = 0
 gc_104: y0 + y1 + y2 - sk107 + sk108  = 0
 gc_105: y0 + y1 + y2 - sk108 + sk109  = 0
 gc_106: y0 + y1 + y2 - sk109 + sk110  = 0
 gc_107: y0 + y1 + y2 - sk110 + sk111  = 0
 gc_108: y0 + y1 + y2 - sk111 + sk112  = 0
 gc_109: y0 + y1 + y2 - sk112 + sk113  = 0
 gc_110: y0 + y1 + y2 - sk113 + sk114  = 0
 gc_111: y0 + y1 + y2 - sk114 + sk115  = 0
 gc_112: y0 + y1 + y2 - sk115 + sk116  = 0
 gc_113: y0 + y1 + y2 - sk116 + sk117  = 0
 gc_114: y0 + y1 + y2 - sk117 + sk118  = 0
 gc_115: y0 + y1 + y2 - sk118 + sk119  = 0
 gc_116: y0 + y1 + y2 - sk119 + sk120  = 0
 gc_117: y0 + y1 + y2 - sk120 + sk121  = 0
 gc_118: y0 + y1 + y2 - sk121 + sk122  = 0
 gc_119: y0 + y1 + y2 - sk122 + sk123  = 0
 gc_120: y0 + y1 + y2 - sk123 + sk124  = 0
 gc_121: y0 + y1 + y2 - sk124 + sk125  = 0
 gc_122: y0 + y1 + y2 - sk125 + sk126  = 0
 gc_123: y0 + y1 + y2 - sk126 + sk127  = 0
 gc_124: y0 + y1 + y2 - sk127 + sk128  = 0
 gc_125: y0 + y1 + y2 - sk128 + sk129  = 0
 gc_126: y0 + y1 + y2 - sk129 + sk130  = 0
 gc_127: y0 + y1 + y2 - sk130 + sk131  = 0
 gc_128: y0 + y1 + y2 - sk131 + sk132  = 0
 gc_129: y0 + y1 + y2 - sk132 + sk133  = 0
 gc_130: y0 + y1 + y2 - sk133 + sk134  = 0
 gc_131: y0 + y1 + y2 - sk134 + sk135  = 0
 gc_132: y0 + y1 + y2 - sk135 + sk136  = 0
 gc_133: y0 + y1 + y2 - sk136 + sk137  = 0
 gc_134: y0 + y1 + y2 - sk137 + sk138  = 0
 gc_135: y0 + y1 + y2 + y3 - sk138 + sk139  = 0
 gc_136: y0 + y1 + y2 - sk139 + sk140  = 0
Bounds
 0 <= x0 <= 1
 0 <= x1 <= 1
End
